\ LP format - for model browsing. Use MPS format to capture full model detail.
Minimize
  0 B20(0) + 0 B22(0) + 0 B24(0) + 0 B25(0) + 0 B27(0) + 0 B28(0) + 0 B31(0)
   + 0 B33(0) + 0 B34(0) + 0 B35(0) + 0 B37(0) + 0 B39(0) + 0 B42(0)
   + 0 B44(0) + 0 B45(0) + 0 B46(0) + 0 B47(0) + 0 B48(0) + 0 B50(0)
   + 0 B51(0) + 0 B53(0) + 0 B54(0) + 0 B56(0) + 0 B57(0) + 0 B58(0)
   + 0 B59(0) + 0 B60(0) + 0 B61(0) + 0 B63(0) + 0 B64(0) + 0 B65(0)
   + 0 B67(0) + 0 B68(0) + 0 B69(0) + 0 B70(0) + 0 B71(0) + 0 B72(0)
   + 0 B74(0) + 0 B78(0) + 0 B80(0) + 0 B81(0) + 0 B82(0) + 0 B83(0)
   + 0 B85(0) + 0 B86(0) + 0 B90(0) + 0 B92(0) + 0 B93(0) + 0 B94(0)
   + 0 B95(0) + 0 B96(0) + 0 B97(0) + 0 B98(0) + 0 B99(0) + 0 B100(0)
   + 0 B103(0) + 0 B104(0) + 0 B105(0) + 0 B106(0) + 0 B107(0) + 0 B108(0)
   + 0 B109(0) + 0 B110(0) + 0 B111(0) + 0 B112(0) + 0 B114(0) + 0 B115(0)
   + 0 B116(0) + 0 B117(0) + 0 B118(0) + 0 B119(0) + 0 B120(0) + 0 B121(0)
   + 0 B122(0) + 0 B123(0) + 0 B124(0) + 0 B125(0) + 0 B126(0) + 0 B128(0)
   + 0 B129(0) + 0 B130(0) + 0 B131(0) + 0 B132(0) + 0 B133(0) + 0 B134(0)
   + 0 B135(0) + 0 B136(0) + 0 B137(0) + 0 B138(0) + 0 B139(0) + 0 B140(0)
   + 0 B141(0) + 0 B142(0) + 0 B143(0) + 0 B144(0) + 0 B145(0) + 0 B146(0)
   + 0 B147(0) + 0 B148(0) + 0 B149(0) + 0 B150(0) + 0 B151(0) + 0 B152(0)
   + 0 B153(0) + 0 B154(0) + 0 B155(0) + 0 B156(0) + 0 B157(0) + 0 B158(0)
   + 0 B159(0) + 0 B160(0) + 0 B161(0) + 0 B162(0) + 0 B163(0) + I184(1)
Subject To
 c0: - 150 B0(11) - 160 B1(9) - 178 B5(9) - 190 B10(9) - 100 B11(9)
   - 136 B15(9) - 145 B16(9) - I164(12) - I165(10) - I169(10) - I174(10)
   - I175(10) - I179(10) - I180(10) + I184(1) >= 0
 c1: B0(11) + B1(9) = 1
 c2: B2(9) + B3(11) = 1
 c3: B4(10) = 1
 c4: B5(9) = 1
 c5: B6(9) + B7(11) = 1
 c6: B8(10) + B9(12) = 1
 c7: B10(9) + B11(9) = 1
 c8: B12(9) = 1
 c9: B13(10) + B14(10) = 1
 c10: B15(9) + B16(9) = 1
 c11: B17(9) = 1
 c12: B18(10) + B19(10) = 1
 c13: - 1e+07 B0(11) + I164(12) <= 0
 c14: - 1e+07 B1(9) + I165(10) <= 0
 c15: - 1e+07 B2(9) + I166(10) <= 0
 c16: - 1e+07 B3(11) + I167(12) <= 0
 c17: - 1e+07 B4(10) + I168(10) <= 0
 c18: - 1e+07 B5(9) + I169(10) <= 0
 c19: - 1e+07 B6(9) + I170(10) <= 0
 c20: - 1e+07 B7(11) + I171(12) <= 0
 c21: - 1e+07 B8(10) + I172(10) <= 0
 c22: - 1e+07 B9(12) + I173(12) <= 0
 c23: - 1e+07 B10(9) + I174(10) <= 0
 c24: - 1e+07 B11(9) + I175(10) <= 0
 c25: - 1e+07 B12(9) + I176(10) <= 0
 c26: - 1e+07 B13(10) + I177(10) <= 0
 c27: - 1e+07 B14(10) + I178(10) <= 0
 c28: - 1e+07 B15(9) + I179(10) <= 0
 c29: - 1e+07 B16(9) + I180(10) <= 0
 c30: - 1e+07 B17(9) + I181(10) <= 0
 c31: - 1e+07 B18(10) + I182(10) <= 0
 c32: - 1e+07 B19(10) + I183(10) <= 0
 c33: - 130 B2(9) - 140 B3(11) + I164(12) + I165(10) - I166(10) - I167(12)
   >= 0
 c34: - 147 B4(10) + I166(10) + I167(12) - I168(10) >= 0
 c35: - 66 B6(9) - 87 B7(11) + I169(10) - I170(10) - I171(12) >= 0
 c36: - 214 B8(10) - 150 B9(12) + I170(10) + I171(12) - I172(10) - I173(12)
   >= 0
 c37: - 180 B12(9) + I174(10) + I175(10) - I176(10) >= 0
 c38: - 87 B13(10) - 62 B14(10) + I176(10) - I177(10) - I178(10) >= 0
 c39: - 173 B17(9) + I179(10) + I180(10) - I181(10) >= 0
 c40: - 87 B18(10) - 65 B19(10) + I181(10) - I182(10) - I183(10) >= 0
 c41: - 1e+07 B0(11) - 1e+07 B3(11) + 1e+07 B21(2) - I164(12) + I167(12)
   >= -1.9999724e+07
 c42: - 1e+07 B0(11) - 1e+07 B3(11) - 1e+07 B21(2) + I164(12) - I167(12)
   >= -2.9999714e+07
 c43: - 1e+07 B1(9) - 1e+07 B5(9) + 1e+07 B23(2) - I165(10) + I169(10)
   >= -1.9999515e+07
 c44: - 1e+07 B1(9) - 1e+07 B5(9) - 1e+07 B23(2) + I165(10) - I169(10)
   >= -2.9999662e+07
 c45: - 1e+07 B0(11) - 1e+07 B10(9) + 1e+07 B26(4) - I164(12) + I174(10)
   >= -1.999925e+07
 c46: - 1e+07 B0(11) - 1e+07 B10(9) - 1e+07 B26(4) + I164(12) - I174(10)
   >= -2.9999683e+07
 c47: - 1e+07 B1(9) - 1e+07 B11(9) + 1e+07 B26(4) - I165(10) + I175(10)
   >= -1.9999436e+07
 c48: - 1e+07 B1(9) - 1e+07 B11(9) - 1e+07 B26(4) + I165(10) - I175(10)
   >= -2.9999116e+07
 c49: - 1e+07 B0(11) - 1e+07 B16(9) + 1e+07 B29(2) - I164(12) + I180(10)
   >= -1.9999265e+07
 c50: - 1e+07 B0(11) - 1e+07 B16(9) - 1e+07 B29(2) + I164(12) - I180(10)
   >= -2.9999565e+07
 c51: - 1e+07 B1(9) - 1e+07 B17(9) + 1e+07 B30(2) - I165(10) + I181(10)
   >= -1.9999567e+07
 c52: - 1e+07 B1(9) - 1e+07 B17(9) - 1e+07 B30(2) + I165(10) - I181(10)
   >= -2.9999395e+07
 c53: - 1e+07 B0(11) - 1e+07 B3(11) + 1e+07 B32(2) + I164(12) - I167(12)
   >= -1.9999714e+07
 c54: - 1e+07 B0(11) - 1e+07 B3(11) - 1e+07 B32(2) - I164(12) + I167(12)
   >= -2.9999724e+07
 c55: - 1e+07 B2(9) - 1e+07 B6(9) + 1e+07 B36(2) - I166(10) + I170(10)
   >= -1.999968e+07
 c56: - 1e+07 B2(9) - 1e+07 B6(9) - 1e+07 B36(2) + I166(10) - I170(10)
   >= -2.9999831e+07
 c57: - 1e+07 B3(11) - 1e+07 B10(9) + 1e+07 B38(2) - I167(12) + I174(10)
   >= -1.9999678e+07
 c58: - 1e+07 B3(11) - 1e+07 B10(9) - 1e+07 B38(2) + I167(12) - I174(10)
   >= -2.9999474e+07
 c59: - 1e+07 B2(9) - 1e+07 B14(10) + 1e+07 B40(2) - I166(10) + I178(10)
   >= -1.9999205e+07
 c60: - 1e+07 B2(9) - 1e+07 B14(10) - 1e+07 B40(2) + I166(10) - I178(10)
   >= -2.9999575e+07
 c61: - 1e+07 B3(11) - 1e+07 B16(9) + 1e+07 B41(2) - I167(12) + I180(10)
   >= -1.9999532e+07
 c62: - 1e+07 B3(11) - 1e+07 B16(9) - 1e+07 B41(2) + I167(12) - I180(10)
   >= -2.9999549e+07
 c63: - 1e+07 B2(9) - 1e+07 B19(10) + 1e+07 B43(2) - I166(10) + I183(10)
   >= -1.9999578e+07
 c64: - 1e+07 B2(9) - 1e+07 B19(10) - 1e+07 B43(2) + I166(10) - I183(10)
   >= -2.9999755e+07
 c65: - 1e+07 B4(10) - 1e+07 B8(10) + 1e+07 B49(2) - I168(10) + I172(10)
   >= -1.9999739e+07
 c66: - 1e+07 B4(10) - 1e+07 B8(10) - 1e+07 B49(2) + I168(10) - I172(10)
   >= -2.9999345e+07
 c67: - 1e+07 B4(10) - 1e+07 B13(10) + 1e+07 B52(2) - I168(10) + I177(10)
   >= -1.9999722e+07
 c68: - 1e+07 B4(10) - 1e+07 B13(10) - 1e+07 B52(2) + I168(10) - I177(10)
   >= -2.9999679e+07
 c69: - 1e+07 B4(10) - 1e+07 B18(10) + 1e+07 B55(2) - I168(10) + I182(10)
   >= -1.9999574e+07
 c70: - 1e+07 B4(10) - 1e+07 B18(10) - 1e+07 B55(2) + I168(10) - I182(10)
   >= -2.9999537e+07
 c71: - 1e+07 B5(9) - 1e+07 B11(9) + 1e+07 B62(2) - I169(10) + I175(10)
   >= -1.999939e+07
 c72: - 1e+07 B5(9) - 1e+07 B11(9) - 1e+07 B62(2) + I169(10) - I175(10)
   >= -2.9999504e+07
 c73: - 1e+07 B5(9) - 1e+07 B17(9) + 1e+07 B66(2) - I169(10) + I181(10)
   >= -1.9999225e+07
 c74: - 1e+07 B5(9) - 1e+07 B17(9) - 1e+07 B66(2) + I169(10) - I181(10)
   >= -2.9999027e+07
 c75: - 1e+07 B7(11) - 1e+07 B9(12) + 1e+07 B73(2) - I171(12) + I173(12)
   >= -1.9999776e+07
 c76: - 1e+07 B7(11) - 1e+07 B9(12) - 1e+07 B73(2) + I171(12) - I173(12)
   >= -2.9999379e+07
 c77: - 1e+07 B7(11) - 1e+07 B12(9) + 1e+07 B75(2) - I171(12) + I176(10)
   >= -1.9999718e+07
 c78: - 1e+07 B7(11) - 1e+07 B12(9) - 1e+07 B75(2) + I171(12) - I176(10)
   >= -2.9999649e+07
 c79: - 1e+07 B6(9) - 1e+07 B14(10) + 1e+07 B76(2) - I170(10) + I178(10)
   >= -1.9999089e+07
 c80: - 1e+07 B6(9) - 1e+07 B14(10) - 1e+07 B76(2) + I170(10) - I178(10)
   >= -2.9999575e+07
 c81: - 1e+07 B7(11) - 1e+07 B15(9) + 1e+07 B77(2) - I171(12) + I179(10)
   >= -1.9999826e+07
 c82: - 1e+07 B7(11) - 1e+07 B15(9) - 1e+07 B77(2) + I171(12) - I179(10)
   >= -2.9999614e+07
 c83: - 1e+07 B6(9) - 1e+07 B19(10) + 1e+07 B79(2) - I170(10) + I183(10)
   >= -1.9999481e+07
 c84: - 1e+07 B6(9) - 1e+07 B19(10) - 1e+07 B79(2) + I170(10) - I183(10)
   >= -2.999952e+07
 c85: - 1e+07 B7(11) - 1e+07 B9(12) + 1e+07 B84(2) + I171(12) - I173(12)
   >= -1.9999379e+07
 c86: - 1e+07 B7(11) - 1e+07 B9(12) - 1e+07 B84(2) - I171(12) + I173(12)
   >= -2.9999776e+07
 c87: - 1e+07 B9(12) - 1e+07 B12(9) + 1e+07 B87(2) - I173(12) + I176(10)
   >= -1.9999394e+07
 c88: - 1e+07 B9(12) - 1e+07 B12(9) - 1e+07 B87(2) + I173(12) - I176(10)
   >= -2.9999405e+07
 c89: - 1e+07 B8(10) - 1e+07 B13(10) + 1e+07 B88(2) - I172(10) + I177(10)
   >= -1.9999608e+07
 c90: - 1e+07 B8(10) - 1e+07 B13(10) - 1e+07 B88(2) + I172(10) - I177(10)
   >= -2.999971e+07
 c91: - 1e+07 B9(12) - 1e+07 B15(9) + 1e+07 B89(2) - I173(12) + I179(10)
   >= -1.9999265e+07
 c92: - 1e+07 B9(12) - 1e+07 B15(9) - 1e+07 B89(2) + I173(12) - I179(10)
   >= -2.9998969e+07
 c93: - 1e+07 B8(10) - 1e+07 B18(10) + 1e+07 B91(2) - I172(10) + I182(10)
   >= -1.9999183e+07
 c94: - 1e+07 B8(10) - 1e+07 B18(10) - 1e+07 B91(2) + I172(10) - I182(10)
   >= -2.9999535e+07
 c95: - 1e+07 B10(9) - 1e+07 B16(9) + 1e+07 B101(2) - I174(10) + I180(10)
   >= -1.9999634e+07
 c96: - 1e+07 B10(9) - 1e+07 B16(9) - 1e+07 B101(2) + I174(10) - I180(10)
   >= -2.9999555e+07
 c97: - 1e+07 B11(9) - 1e+07 B17(9) + 1e+07 B102(2) - I175(10) + I181(10)
   >= -1.9999508e+07
 c98: - 1e+07 B11(9) - 1e+07 B17(9) - 1e+07 B102(2) + I175(10) - I181(10)
   >= -2.9999673e+07
 c99: - 1e+07 B12(9) - 1e+07 B15(9) + 1e+07 B113(2) - I176(10) + I179(10)
   >= -1.9999452e+07
 c100: - 1e+07 B12(9) - 1e+07 B15(9) - 1e+07 B113(2) + I176(10) - I179(10)
   >= -2.9999471e+07
 c101: - 1e+07 B13(10) - 1e+07 B18(10) + 1e+07 B127(4) - I177(10)
   + I182(10) >= -1.9999633e+07
 c102: - 1e+07 B13(10) - 1e+07 B18(10) - 1e+07 B127(4) + I177(10)
   - I182(10) >= -2.9999168e+07
 c103: - 1e+07 B14(10) - 1e+07 B19(10) + 1e+07 B127(4) - I178(10)
   + I183(10) >= -1.9999785e+07
 c104: - 1e+07 B14(10) - 1e+07 B19(10) - 1e+07 B127(4) + I178(10)
   - I183(10) >= -2.9999853e+07
 c105: I164(12) >= 0
 c106: I165(10) >= 0
 c107: I166(10) >= 0
 c108: I167(12) >= 0
 c109: - 480 B4(10) + I168(10) >= 0
 c110: I168(10) >= 0
 c111: I169(10) >= 0
 c112: I170(10) >= 0
 c113: I171(12) >= 0
 c114: - 480 B8(10) + I172(10) >= 0
 c115: I172(10) >= 0
 c116: - 480 B9(12) + I173(12) >= 0
 c117: I173(12) >= 0
 c118: I174(10) >= 0
 c119: I175(10) >= 0
 c120: I176(10) >= 0
 c121: - 480 B13(10) + I177(10) >= 0
 c122: I177(10) >= 0
 c123: - 480 B14(10) + I178(10) >= 0
 c124: I178(10) >= 0
 c125: I179(10) >= 0
 c126: I180(10) >= 0
 c127: I181(10) >= 0
 c128: - 480 B18(10) + I182(10) >= 0
 c129: I182(10) >= 0
 c130: - 480 B19(10) + I183(10) >= 0
 c131: I183(10) >= 0
Bounds
Binaries
 B0(11) B1(9) B2(9) B3(11) B4(10) B5(9) B6(9) B7(11) B8(10) B9(12) B10(9)
 B11(9) B12(9) B13(10) B14(10) B15(9) B16(9) B17(9) B18(10) B19(10) B20(0)
 B21(2) B22(0) B23(2) B24(0) B25(0) B26(4) B27(0) B28(0) B29(2) B30(2)
 B31(0) B32(2) B33(0) B34(0) B35(0) B36(2) B37(0) B38(2) B39(0) B40(2)
 B41(2) B42(0) B43(2) B44(0) B45(0) B46(0) B47(0) B48(0) B49(2) B50(0)
 B51(0) B52(2) B53(0) B54(0) B55(2) B56(0) B57(0) B58(0) B59(0) B60(0)
 B61(0) B62(2) B63(0) B64(0) B65(0) B66(2) B67(0) B68(0) B69(0) B70(0)
 B71(0) B72(0) B73(2) B74(0) B75(2) B76(2) B77(2) B78(0) B79(2) B80(0)
 B81(0) B82(0) B83(0) B84(2) B85(0) B86(0) B87(2) B88(2) B89(2) B90(0)
 B91(2) B92(0) B93(0) B94(0) B95(0) B96(0) B97(0) B98(0) B99(0) B100(0)
 B101(2) B102(2) B103(0) B104(0) B105(0) B106(0) B107(0) B108(0) B109(0)
 B110(0) B111(0) B112(0) B113(2) B114(0) B115(0) B116(0) B117(0) B118(0)
 B119(0) B120(0) B121(0) B122(0) B123(0) B124(0) B125(0) B126(0) B127(4)
 B128(0) B129(0) B130(0) B131(0) B132(0) B133(0) B134(0) B135(0) B136(0)
 B137(0) B138(0) B139(0) B140(0) B141(0) B142(0) B143(0) B144(0) B145(0)
 B146(0) B147(0) B148(0) B149(0) B150(0) B151(0) B152(0) B153(0) B154(0)
 B155(0) B156(0) B157(0) B158(0) B159(0) B160(0) B161(0) B162(0) B163(0)
Generals
 I164(12) I165(10) I166(10) I167(12) I168(10) I169(10) I170(10) I171(12)
 I172(10) I173(12) I174(10) I175(10) I176(10) I177(10) I178(10) I179(10)
 I180(10) I181(10) I182(10) I183(10) I184(1)
End
